100
128
9
38
20
45
7
3
6
28
23
48
20
6
9
19
26
32
19
59
28
62
4
45
4
6
64
42
3
22
5
57
36
47
5
8
36
24
3
4
30
28
8
30
53
46
26
47
46
46
43
54
50
46
1
5
55
27
49
3
61
50
44
4
52
43
8
64
12
45
58
58
1
4
44
60
2
38
60
48
19
20
64
33
1
35
8
9
64
49
47
61
4
4
34
3
14
11
6
1
15
64